16 32
1 2 5
1 5 5
2 3 5
2 6 4
3 4 2
3 7 1
4 8 2
5 6 2
5 9 1
6 7 4
6 10 3
7 8 5
7 11 3
8 12 3
9 10 2
9 13 1
10 11 5
10 14 3
11 12 2
11 15 4
12 16 4
13 14 1
14 15 3
15 16 2
1 13 3
2 14 1
3 15 1
4 16 1
1 4 5
5 8 1
9 12 2
13 16 4
